\ENCODING=ISO-8859-1
\Problem name: IloCplex

Minimize
 obj: id1 + id1188
Subject To
 id557:  id1 <= 46
 id559:  id2 - id3 + 46 id48 >= 2
 id562:  - id2 + id3 - 46 id48 >= -44
 id563:  id2 - id4 + 46 id71 >= 1
 id566:  - id2 + id4 - 46 id71 >= -45
 id567:  id3 - id4 + 46 id72 >= 2
 id570:  - id3 + id4 - 46 id72 >= -44
 id571:  id3 - id5 + 46 id95 >= 1
 id574:  - id3 + id5 - 46 id95 >= -45
 id575:  id4 - id5 + 46 id96 >= 2
 id578:  - id4 + id5 - 46 id96 >= -44
 id579:  id4 - id6 + 46 id119 >= 1
 id582:  - id4 + id6 - 46 id119 >= -45
 id583:  id5 - id6 + 46 id120 >= 2
 id586:  - id5 + id6 - 46 id120 >= -44
 id587:  id2 - id7 + 46 id140 >= 2
 id590:  - id2 + id7 - 46 id140 >= -44
 id591:  id3 - id7 + 46 id141 >= 2
 id594:  - id3 + id7 - 46 id141 >= -44
 id595:  id4 - id7 + 46 id142 >= 1
 id598:  - id4 + id7 - 46 id142 >= -45
 id599:  id2 - id8 + 46 id163 >= 1
 id602:  - id2 + id8 - 46 id163 >= -45
 id603:  id3 - id8 + 46 id164 >= 2
 id606:  - id3 + id8 - 46 id164 >= -44
 id607:  id4 - id8 + 46 id165 >= 2
 id610:  - id4 + id8 - 46 id165 >= -44
 id611:  id5 - id8 + 46 id166 >= 1
 id614:  - id5 + id8 - 46 id166 >= -45
 id615:  id7 - id8 + 46 id168 >= 2
 id618:  - id7 + id8 - 46 id168 >= -44
 id619:  id3 - id9 + 46 id187 >= 1
 id622:  - id3 + id9 - 46 id187 >= -45
 id623:  id4 - id9 + 46 id188 >= 2
 id626:  - id4 + id9 - 46 id188 >= -44
 id627:  id5 - id9 + 46 id189 >= 2
 id630:  - id5 + id9 - 46 id189 >= -44
 id631:  id6 - id9 + 46 id190 >= 1
 id634:  - id6 + id9 - 46 id190 >= -45
 id635:  id7 - id9 + 46 id191 >= 1
 id638:  - id7 + id9 - 46 id191 >= -45
 id639:  id8 - id9 + 46 id192 >= 2
 id642:  - id8 + id9 - 46 id192 >= -44
 id643:  id4 - id10 + 46 id211 >= 1
 id646:  - id4 + id10 - 46 id211 >= -45
 id647:  id5 - id10 + 46 id212 >= 2
 id650:  - id5 + id10 - 46 id212 >= -44
 id651:  id6 - id10 + 46 id213 >= 2
 id654:  - id6 + id10 - 46 id213 >= -44
 id655:  id8 - id10 + 46 id215 >= 1
 id658:  - id8 + id10 - 46 id215 >= -45
 id659:  id9 - id10 + 46 id216 >= 2
 id662:  - id9 + id10 - 46 id216 >= -44
 id663:  id2 - id11 + 46 id232 >= 1
 id666:  - id2 + id11 - 46 id232 >= -45
 id667:  id3 - id11 + 46 id233 >= 1
 id670:  - id3 + id11 - 46 id233 >= -45
 id671:  id7 - id11 + 46 id237 >= 2
 id674:  - id7 + id11 - 46 id237 >= -44
 id675:  id8 - id11 + 46 id238 >= 1
 id678:  - id8 + id11 - 46 id238 >= -45
 id679:  id2 - id12 + 46 id255 >= 1
 id682:  - id2 + id12 - 46 id255 >= -45
 id683:  id3 - id12 + 46 id256 >= 1
 id686:  - id3 + id12 - 46 id256 >= -45
 id687:  id4 - id12 + 46 id257 >= 1
 id690:  - id4 + id12 - 46 id257 >= -45
 id691:  id7 - id12 + 46 id260 >= 2
 id694:  - id7 + id12 - 46 id260 >= -44
 id695:  id8 - id12 + 46 id261 >= 2
 id698:  - id8 + id12 - 46 id261 >= -44
 id699:  id9 - id12 + 46 id262 >= 1
 id702:  - id9 + id12 - 46 id262 >= -45
 id703:  id11 - id12 + 46 id264 >= 2
 id706:  - id11 + id12 - 46 id264 >= -44
 id707:  id3 - id13 + 46 id279 >= 1
 id710:  - id3 + id13 - 46 id279 >= -45
 id711:  id4 - id13 + 46 id280 >= 1
 id714:  - id4 + id13 - 46 id280 >= -45
 id715:  id5 - id13 + 46 id281 >= 1
 id718:  - id5 + id13 - 46 id281 >= -45
 id719:  id7 - id13 + 46 id283 >= 1
 id722:  - id7 + id13 - 46 id283 >= -45
 id723:  id8 - id13 + 46 id284 >= 2
 id726:  - id8 + id13 - 46 id284 >= -44
 id727:  id9 - id13 + 46 id285 >= 2
 id730:  - id9 + id13 - 46 id285 >= -44
 id731:  id10 - id13 + 46 id286 >= 1
 id734:  - id10 + id13 - 46 id286 >= -45
 id735:  id11 - id13 + 46 id287 >= 1
 id738:  - id11 + id13 - 46 id287 >= -45
 id739:  id12 - id13 + 46 id288 >= 2
 id742:  - id12 + id13 - 46 id288 >= -44
 id743:  id4 - id14 + 46 id303 >= 1
 id746:  - id4 + id14 - 46 id303 >= -45
 id747:  id5 - id14 + 46 id304 >= 1
 id750:  - id5 + id14 - 46 id304 >= -45
 id751:  id6 - id14 + 46 id305 >= 1
 id754:  - id6 + id14 - 46 id305 >= -45
 id755:  id8 - id14 + 46 id307 >= 1
 id758:  - id8 + id14 - 46 id307 >= -45
 id759:  id9 - id14 + 46 id308 >= 2
 id762:  - id9 + id14 - 46 id308 >= -44
 id763:  id10 - id14 + 46 id309 >= 2
 id766:  - id10 + id14 - 46 id309 >= -44
 id767:  id12 - id14 + 46 id311 >= 1
 id770:  - id12 + id14 - 46 id311 >= -45
 id771:  id13 - id14 + 46 id312 >= 2
 id774:  - id13 + id14 - 46 id312 >= -44
 id775:  id5 - id15 + 46 id327 >= 1
 id778:  - id5 + id15 - 46 id327 >= -45
 id779:  id6 - id15 + 46 id328 >= 1
 id782:  - id6 + id15 - 46 id328 >= -45
 id783:  id9 - id15 + 46 id331 >= 1
 id786:  - id9 + id15 - 46 id331 >= -45
 id787:  id10 - id15 + 46 id332 >= 2
 id790:  - id10 + id15 - 46 id332 >= -44
 id791:  id13 - id15 + 46 id335 >= 1
 id794:  - id13 + id15 - 46 id335 >= -45
 id795:  id14 - id15 + 46 id336 >= 2
 id798:  - id14 + id15 - 46 id336 >= -44
 id799:  id7 - id16 + 46 id352 >= 1
 id802:  - id7 + id16 - 46 id352 >= -45
 id803:  id8 - id16 + 46 id353 >= 1
 id806:  - id8 + id16 - 46 id353 >= -45
 id807:  id11 - id16 + 46 id356 >= 2
 id810:  - id11 + id16 - 46 id356 >= -44
 id811:  id12 - id16 + 46 id357 >= 2
 id814:  - id12 + id16 - 46 id357 >= -44
 id815:  id13 - id16 + 46 id358 >= 1
 id818:  - id13 + id16 - 46 id358 >= -45
 id819:  id7 - id17 + 46 id375 >= 1
 id822:  - id7 + id17 - 46 id375 >= -45
 id823:  id8 - id17 + 46 id376 >= 1
 id826:  - id8 + id17 - 46 id376 >= -45
 id827:  id9 - id17 + 46 id377 >= 1
 id830:  - id9 + id17 - 46 id377 >= -45
 id831:  id11 - id17 + 46 id379 >= 1
 id834:  - id11 + id17 - 46 id379 >= -45
 id835:  id12 - id17 + 46 id380 >= 2
 id838:  - id12 + id17 - 46 id380 >= -44
 id839:  id13 - id17 + 46 id381 >= 2
 id842:  - id13 + id17 - 46 id381 >= -44
 id843:  id14 - id17 + 46 id382 >= 1
 id846:  - id14 + id17 - 46 id382 >= -45
 id847:  id16 - id17 + 46 id384 >= 2
 id850:  - id16 + id17 - 46 id384 >= -44
 id851:  id8 - id18 + 46 id399 >= 1
 id854:  - id8 + id18 - 46 id399 >= -45
 id855:  id9 - id18 + 46 id400 >= 1
 id858:  - id9 + id18 - 46 id400 >= -45
 id859:  id10 - id18 + 46 id401 >= 1
 id862:  - id10 + id18 - 46 id401 >= -45
 id863:  id12 - id18 + 46 id403 >= 1
 id866:  - id12 + id18 - 46 id403 >= -45
 id867:  id13 - id18 + 46 id404 >= 2
 id870:  - id13 + id18 - 46 id404 >= -44
 id871:  id14 - id18 + 46 id405 >= 2
 id874:  - id14 + id18 - 46 id405 >= -44
 id875:  id15 - id18 + 46 id406 >= 1
 id878:  - id15 + id18 - 46 id406 >= -45
 id879:  id16 - id18 + 46 id407 >= 1
 id882:  - id16 + id18 - 46 id407 >= -45
 id883:  id17 - id18 + 46 id408 >= 2
 id886:  - id17 + id18 - 46 id408 >= -44
 id887:  id9 - id19 + 46 id423 >= 1
 id890:  - id9 + id19 - 46 id423 >= -45
 id891:  id10 - id19 + 46 id424 >= 1
 id894:  - id10 + id19 - 46 id424 >= -45
 id895:  id13 - id19 + 46 id427 >= 1
 id898:  - id13 + id19 - 46 id427 >= -45
 id899:  id14 - id19 + 46 id428 >= 2
 id902:  - id14 + id19 - 46 id428 >= -44
 id903:  id15 - id19 + 46 id429 >= 2
 id906:  - id15 + id19 - 46 id429 >= -44
 id907:  id17 - id19 + 46 id431 >= 1
 id910:  - id17 + id19 - 46 id431 >= -45
 id911:  id18 - id19 + 46 id432 >= 2
 id914:  - id18 + id19 - 46 id432 >= -44
 id915:  id11 - id20 + 46 id448 >= 1
 id918:  - id11 + id20 - 46 id448 >= -45
 id919:  id12 - id20 + 46 id449 >= 1
 id922:  - id12 + id20 - 46 id449 >= -45
 id923:  id16 - id20 + 46 id453 >= 2
 id926:  - id16 + id20 - 46 id453 >= -44
 id927:  id17 - id20 + 46 id454 >= 1
 id930:  - id17 + id20 - 46 id454 >= -45
 id931:  id11 - id21 + 46 id471 >= 1
 id934:  - id11 + id21 - 46 id471 >= -45
 id935:  id12 - id21 + 46 id472 >= 1
 id938:  - id12 + id21 - 46 id472 >= -45
 id939:  id13 - id21 + 46 id473 >= 1
 id942:  - id13 + id21 - 46 id473 >= -45
 id943:  id16 - id21 + 46 id476 >= 2
 id946:  - id16 + id21 - 46 id476 >= -44
 id947:  id17 - id21 + 46 id477 >= 2
 id950:  - id17 + id21 - 46 id477 >= -44
 id951:  id18 - id21 + 46 id478 >= 1
 id954:  - id18 + id21 - 46 id478 >= -45
 id955:  id20 - id21 + 46 id480 >= 2
 id958:  - id20 + id21 - 46 id480 >= -44
 id959:  id12 - id22 + 46 id495 >= 1
 id962:  - id12 + id22 - 46 id495 >= -45
 id963:  id13 - id22 + 46 id496 >= 1
 id966:  - id13 + id22 - 46 id496 >= -45
 id967:  id14 - id22 + 46 id497 >= 1
 id970:  - id14 + id22 - 46 id497 >= -45
 id971:  id16 - id22 + 46 id499 >= 1
 id974:  - id16 + id22 - 46 id499 >= -45
 id975:  id17 - id22 + 46 id500 >= 2
 id978:  - id17 + id22 - 46 id500 >= -44
 id979:  id18 - id22 + 46 id501 >= 2
 id982:  - id18 + id22 - 46 id501 >= -44
 id983:  id19 - id22 + 46 id502 >= 1
 id986:  - id19 + id22 - 46 id502 >= -45
 id987:  id20 - id22 + 46 id503 >= 1
 id990:  - id20 + id22 - 46 id503 >= -45
 id991:  id21 - id22 + 46 id504 >= 2
 id994:  - id21 + id22 - 46 id504 >= -44
 id995:  id13 - id23 + 46 id519 >= 1
 id998:  - id13 + id23 - 46 id519 >= -45
 id999:  id14 - id23 + 46 id520 >= 1
 id1002: - id14 + id23 - 46 id520 >= -45
 id1003: id15 - id23 + 46 id521 >= 1
 id1006: - id15 + id23 - 46 id521 >= -45
 id1007: id17 - id23 + 46 id523 >= 1
 id1010: - id17 + id23 - 46 id523 >= -45
 id1011: id18 - id23 + 46 id524 >= 2
 id1014: - id18 + id23 - 46 id524 >= -44
 id1015: id19 - id23 + 46 id525 >= 2
 id1018: - id19 + id23 - 46 id525 >= -44
 id1019: id21 - id23 + 46 id527 >= 1
 id1022: - id21 + id23 - 46 id527 >= -45
 id1023: id22 - id23 + 46 id528 >= 2
 id1026: - id22 + id23 - 46 id528 >= -44
 id1027: id14 - id24 + 46 id543 >= 1
 id1030: - id14 + id24 - 46 id543 >= -45
 id1031: id15 - id24 + 46 id544 >= 1
 id1034: - id15 + id24 - 46 id544 >= -45
 id1035: id18 - id24 + 46 id547 >= 1
 id1038: - id18 + id24 - 46 id547 >= -45
 id1039: id19 - id24 + 46 id548 >= 2
 id1042: - id19 + id24 - 46 id548 >= -44
 id1043: id22 - id24 + 46 id551 >= 1
 id1046: - id22 + id24 - 46 id551 >= -45
 id1047: id23 - id24 + 46 id552 >= 2
 id1050: - id23 + id24 - 46 id552 >= -44
 id1052: id2 >= 1
 id1055: id2 + id3 >= 2
 id1058: id3 + id4 >= 2
 id1061: id4 + id5 >= 2
 id1064: id5 + id6 >= 2
 id1067: id2 + id3 + id7 >= 4
 id1070: id3 + id4 + id7 + id8 >= 7
 id1073: id4 + id5 + id8 + id9 >= 7
 id1076: id5 + id6 + id9 + id10 >= 7
 id1079: id7 + id11 >= 2
 id1082: id7 + id8 + id11 + id12 >= 7
 id1085: id8 + id9 + id12 + id13 >= 7
 id1088: id9 + id10 + id13 + id14 >= 7
 id1091: id10 + id14 + id15 >= 4
 id1094: id11 + id12 + id16 >= 4
 id1097: id12 + id13 + id16 + id17 >= 7
 id1100: id13 + id14 + id17 + id18 >= 7
 id1103: id14 + id15 + id18 + id19 >= 7
 id1106: id16 + id20 >= 2
 id1109: id16 + id17 + id20 + id21 >= 7
 id1112: id17 + id18 + id21 + id22 >= 7
 id1115: id18 + id19 + id22 + id23 >= 7
 id1118: id19 + id23 + id24 >= 4
 id1119: - id1 + id2 <= 0
 id1120: id2 >= 0
 id1122: - id1 + id3 <= 0
 id1123: id3 >= 0
 id1125: - id1 + id4 <= 0
 id1126: id4 >= 0
 id1128: - id1 + id5 <= 0
 id1129: id5 >= 0
 id1131: - id1 + id6 <= 0
 id1132: id6 >= 0
 id1134: - id1 + id7 <= 0
 id1135: id7 >= 0
 id1137: - id1 + id8 <= 0
 id1138: id8 >= 0
 id1140: - id1 + id9 <= 0
 id1141: id9 >= 0
 id1143: - id1 + id10 <= 0
 id1144: id10 >= 0
 id1146: - id1 + id11 <= 0
 id1147: id11 >= 0
 id1149: - id1 + id12 <= 0
 id1150: id12 >= 0
 id1152: - id1 + id13 <= 0
 id1153: id13 >= 0
 id1155: - id1 + id14 <= 0
 id1156: id14 >= 0
 id1158: - id1 + id15 <= 0
 id1159: id15 >= 0
 id1161: - id1 + id16 <= 0
 id1162: id16 >= 0
 id1164: - id1 + id17 <= 0
 id1165: id17 >= 0
 id1167: - id1 + id18 <= 0
 id1168: id18 >= 0
 id1170: - id1 + id19 <= 0
 id1171: id19 >= 0
 id1173: - id1 + id20 <= 0
 id1174: id20 >= 0
 id1176: - id1 + id21 <= 0
 id1177: id21 >= 0
 id1179: - id1 + id22 <= 0
 id1180: id22 >= 0
 id1182: - id1 + id23 <= 0
 id1183: id23 >= 0
 id1185: - id1 + id24 <= 0
 id1186: id24 >= 0
Bounds
      id1 >= 0
      id1188 = 0
      id2 >= 0
      id3 >= 0
 0 <= id48 <= 1
      id4 >= 0
 0 <= id71 <= 1
 0 <= id72 <= 1
      id5 >= 0
 0 <= id95 <= 1
 0 <= id96 <= 1
      id6 >= 0
 0 <= id119 <= 1
 0 <= id120 <= 1
      id7 >= 0
 0 <= id140 <= 1
 0 <= id141 <= 1
 0 <= id142 <= 1
      id8 >= 0
 0 <= id163 <= 1
 0 <= id164 <= 1
 0 <= id165 <= 1
 0 <= id166 <= 1
 0 <= id168 <= 1
      id9 >= 0
 0 <= id187 <= 1
 0 <= id188 <= 1
 0 <= id189 <= 1
 0 <= id190 <= 1
 0 <= id191 <= 1
 0 <= id192 <= 1
      id10 >= 0
 0 <= id211 <= 1
 0 <= id212 <= 1
 0 <= id213 <= 1
 0 <= id215 <= 1
 0 <= id216 <= 1
      id11 >= 0
 0 <= id232 <= 1
 0 <= id233 <= 1
 0 <= id237 <= 1
 0 <= id238 <= 1
      id12 >= 0
 0 <= id255 <= 1
 0 <= id256 <= 1
 0 <= id257 <= 1
 0 <= id260 <= 1
 0 <= id261 <= 1
 0 <= id262 <= 1
 0 <= id264 <= 1
      id13 >= 0
 0 <= id279 <= 1
 0 <= id280 <= 1
 0 <= id281 <= 1
 0 <= id283 <= 1
 0 <= id284 <= 1
 0 <= id285 <= 1
 0 <= id286 <= 1
 0 <= id287 <= 1
 0 <= id288 <= 1
      id14 >= 0
 0 <= id303 <= 1
 0 <= id304 <= 1
 0 <= id305 <= 1
 0 <= id307 <= 1
 0 <= id308 <= 1
 0 <= id309 <= 1
 0 <= id311 <= 1
 0 <= id312 <= 1
      id15 >= 0
 0 <= id327 <= 1
 0 <= id328 <= 1
 0 <= id331 <= 1
 0 <= id332 <= 1
 0 <= id335 <= 1
 0 <= id336 <= 1
      id16 >= 0
 0 <= id352 <= 1
 0 <= id353 <= 1
 0 <= id356 <= 1
 0 <= id357 <= 1
 0 <= id358 <= 1
      id17 >= 0
 0 <= id375 <= 1
 0 <= id376 <= 1
 0 <= id377 <= 1
 0 <= id379 <= 1
 0 <= id380 <= 1
 0 <= id381 <= 1
 0 <= id382 <= 1
 0 <= id384 <= 1
      id18 >= 0
 0 <= id399 <= 1
 0 <= id400 <= 1
 0 <= id401 <= 1
 0 <= id403 <= 1
 0 <= id404 <= 1
 0 <= id405 <= 1
 0 <= id406 <= 1
 0 <= id407 <= 1
 0 <= id408 <= 1
      id19 >= 0
 0 <= id423 <= 1
 0 <= id424 <= 1
 0 <= id427 <= 1
 0 <= id428 <= 1
 0 <= id429 <= 1
 0 <= id431 <= 1
 0 <= id432 <= 1
      id20 >= 0
 0 <= id448 <= 1
 0 <= id449 <= 1
 0 <= id453 <= 1
 0 <= id454 <= 1
      id21 >= 0
 0 <= id471 <= 1
 0 <= id472 <= 1
 0 <= id473 <= 1
 0 <= id476 <= 1
 0 <= id477 <= 1
 0 <= id478 <= 1
 0 <= id480 <= 1
      id22 >= 0
 0 <= id495 <= 1
 0 <= id496 <= 1
 0 <= id497 <= 1
 0 <= id499 <= 1
 0 <= id500 <= 1
 0 <= id501 <= 1
 0 <= id502 <= 1
 0 <= id503 <= 1
 0 <= id504 <= 1
      id23 >= 0
 0 <= id519 <= 1
 0 <= id520 <= 1
 0 <= id521 <= 1
 0 <= id523 <= 1
 0 <= id524 <= 1
 0 <= id525 <= 1
 0 <= id527 <= 1
 0 <= id528 <= 1
      id24 >= 0
 0 <= id543 <= 1
 0 <= id544 <= 1
 0 <= id547 <= 1
 0 <= id548 <= 1
 0 <= id551 <= 1
 0 <= id552 <= 1
Binaries
 id48  id71  id72  id95  id96  id119  id120  id140  id141  id142  id163  id164 
 id165  id166  id168  id187  id188  id189  id190  id191  id192  id211  id212 
 id213  id215  id216  id232  id233  id237  id238  id255  id256  id257  id260 
 id261  id262  id264  id279  id280  id281  id283  id284  id285  id286  id287 
 id288  id303  id304  id305  id307  id308  id309  id311  id312  id327  id328 
 id331  id332  id335  id336  id352  id353  id356  id357  id358  id375  id376 
 id377  id379  id380  id381  id382  id384  id399  id400  id401  id403  id404 
 id405  id406  id407  id408  id423  id424  id427  id428  id429  id431  id432 
 id448  id449  id453  id454  id471  id472  id473  id476  id477  id478  id480 
 id495  id496  id497  id499  id500  id501  id502  id503  id504  id519  id520 
 id521  id523  id524  id525  id527  id528  id543  id544  id547  id548  id551 
 id552 
Generals
 id1  id2  id3  id4  id5  id6  id7  id8  id9  id10  id11  id12  id13  id14 
 id15  id16  id17  id18  id19  id20  id21  id22  id23  id24 
End
